c not original file ! May have been modified for weighted vertex coloring problem (edges and vertices stay the same only weights may have been moved to an other file)
p edge 198 2055
e 1 2
e 1 3
e 1 4
e 1 5
e 1 6
e 1 7
e 1 8
e 1 9
e 1 10
e 1 30
e 1 43
e 1 67
e 1 75
e 1 87
e 1 111
e 1 119
e 1 133
e 1 146
e 1 157
e 1 178
e 2 3
e 2 4
e 2 5
e 2 6
e 2 7
e 2 8
e 2 9
e 2 10
e 2 32
e 2 45
e 2 69
e 2 76
e 2 88
e 2 99
e 2 167
e 2 179
e 3 4
e 3 5
e 3 6
e 3 7
e 3 8
e 3 9
e 3 10
e 3 15
e 3 35
e 3 47
e 3 57
e 3 91
e 3 102
e 3 137
e 3 181
e 3 193
e 4 5
e 4 6
e 4 7
e 4 8
e 4 9
e 4 10
e 4 17
e 4 24
e 4 37
e 4 59
e 4 70
e 4 80
e 4 115
e 4 123
e 4 150
e 4 161
e 4 171
e 4 183
e 5 6
e 5 7
e 5 8
e 5 9
e 5 10
e 5 18
e 5 25
e 5 38
e 5 81
e 5 93
e 5 105
e 5 116
e 5 124
e 5 162
e 5 172
e 5 184
e 6 7
e 6 8
e 6 9
e 6 10
e 6 19
e 6 26
e 6 39
e 6 50
e 6 60
e 6 71
e 6 82
e 6 94
e 6 106
e 6 117
e 6 125
e 6 139
e 6 151
e 6 163
e 6 185
e 7 8
e 7 9
e 7 10
e 7 61
e 7 72
e 7 118
e 7 126
e 7 140
e 7 164
e 7 173
e 7 186
e 7 195
e 8 9
e 8 10
e 8 20
e 8 40
e 8 63
e 8 83
e 8 96
e 8 108
e 8 128
e 8 142
e 8 153
e 8 165
e 8 175
e 8 197
e 9 10
e 9 64
e 9 97
e 9 129
e 9 143
e 9 176
e 9 188
e 10 28
e 10 41
e 10 51
e 10 65
e 10 73
e 10 84
e 10 98
e 10 130
e 10 154
e 10 177
e 10 189
e 10 198
e 11 12
e 11 13
e 11 14
e 11 15
e 11 16
e 11 17
e 11 18
e 11 19
e 11 20
e 11 29
e 11 42
e 11 52
e 11 66
e 11 85
e 11 109
e 11 131
e 11 144
e 11 155
e 11 166
e 12 13
e 12 14
e 12 15
e 12 16
e 12 17
e 12 18
e 12 19
e 12 20
e 12 53
e 12 74
e 12 86
e 12 110
e 12 132
e 12 145
e 12 156
e 12 190
e 13 14
e 13 15
e 13 16
e 13 17
e 13 18
e 13 19
e 13 20
e 13 31
e 13 44
e 13 54
e 13 68
e 13 112
e 13 120
e 13 134
e 13 147
e 13 191
e 14 15
e 14 16
e 14 17
e 14 18
e 14 19
e 14 20
e 14 21
e 14 33
e 14 55
e 14 77
e 14 89
e 14 100
e 14 113
e 14 135
e 14 158
e 15 16
e 15 17
e 15 18
e 15 19
e 15 20
e 15 35
e 15 47
e 15 57
e 15 91
e 15 102
e 15 137
e 15 181
e 15 193
e 16 17
e 16 18
e 16 19
e 16 20
e 16 22
e 16 48
e 16 58
e 16 103
e 16 169
e 16 194
e 17 18
e 17 19
e 17 20
e 17 24
e 17 37
e 17 59
e 17 70
e 17 80
e 17 115
e 17 123
e 17 150
e 17 161
e 17 171
e 17 183
e 18 19
e 18 20
e 18 25
e 18 38
e 18 81
e 18 93
e 18 105
e 18 116
e 18 124
e 18 162
e 18 172
e 18 184
e 19 20
e 19 26
e 19 39
e 19 50
e 19 60
e 19 71
e 19 82
e 19 94
e 19 106
e 19 117
e 19 125
e 19 139
e 19 151
e 19 163
e 19 185
e 20 40
e 20 63
e 20 83
e 20 96
e 20 108
e 20 128
e 20 142
e 20 153
e 20 165
e 20 175
e 20 197
e 21 22
e 21 23
e 21 24
e 21 25
e 21 26
e 21 27
e 21 28
e 21 33
e 21 55
e 21 77
e 21 89
e 21 100
e 21 113
e 21 135
e 21 158
e 22 23
e 22 24
e 22 25
e 22 26
e 22 27
e 22 28
e 22 48
e 22 58
e 22 103
e 22 169
e 22 194
e 23 24
e 23 25
e 23 26
e 23 27
e 23 28
e 23 36
e 23 49
e 23 79
e 23 92
e 23 104
e 23 122
e 23 138
e 23 149
e 23 160
e 23 170
e 23 182
e 24 25
e 24 26
e 24 27
e 24 28
e 24 37
e 24 59
e 24 70
e 24 80
e 24 115
e 24 123
e 24 150
e 24 161
e 24 171
e 24 183
e 25 26
e 25 27
e 25 28
e 25 38
e 25 81
e 25 93
e 25 105
e 25 116
e 25 124
e 25 162
e 25 172
e 25 184
e 26 27
e 26 28
e 26 39
e 26 50
e 26 60
e 26 71
e 26 82
e 26 94
e 26 106
e 26 117
e 26 125
e 26 139
e 26 151
e 26 163
e 26 185
e 27 28
e 27 62
e 27 95
e 27 107
e 27 127
e 27 141
e 27 152
e 27 174
e 27 187
e 27 196
e 28 41
e 28 51
e 28 65
e 28 73
e 28 84
e 28 98
e 28 130
e 28 154
e 28 177
e 28 189
e 28 198
e 29 30
e 29 31
e 29 32
e 29 33
e 29 34
e 29 35
e 29 36
e 29 37
e 29 38
e 29 39
e 29 40
e 29 41
e 29 42
e 29 52
e 29 66
e 29 85
e 29 109
e 29 131
e 29 144
e 29 155
e 29 166
e 30 31
e 30 32
e 30 33
e 30 34
e 30 35
e 30 36
e 30 37
e 30 38
e 30 39
e 30 40
e 30 41
e 30 43
e 30 67
e 30 75
e 30 87
e 30 111
e 30 119
e 30 133
e 30 146
e 30 157
e 30 178
e 31 32
e 31 33
e 31 34
e 31 35
e 31 36
e 31 37
e 31 38
e 31 39
e 31 40
e 31 41
e 31 44
e 31 54
e 31 68
e 31 112
e 31 120
e 31 134
e 31 147
e 31 191
e 32 33
e 32 34
e 32 35
e 32 36
e 32 37
e 32 38
e 32 39
e 32 40
e 32 41
e 32 45
e 32 69
e 32 76
e 32 88
e 32 99
e 32 167
e 32 179
e 33 34
e 33 35
e 33 36
e 33 37
e 33 38
e 33 39
e 33 40
e 33 41
e 33 55
e 33 77
e 33 89
e 33 100
e 33 113
e 33 135
e 33 158
e 34 35
e 34 36
e 34 37
e 34 38
e 34 39
e 34 40
e 34 41
e 34 46
e 34 56
e 34 78
e 34 90
e 34 101
e 34 114
e 34 121
e 34 136
e 34 148
e 34 159
e 34 168
e 34 180
e 34 192
e 35 36
e 35 37
e 35 38
e 35 39
e 35 40
e 35 41
e 35 47
e 35 57
e 35 91
e 35 102
e 35 137
e 35 181
e 35 193
e 36 37
e 36 38
e 36 39
e 36 40
e 36 41
e 36 49
e 36 79
e 36 92
e 36 104
e 36 122
e 36 138
e 36 149
e 36 160
e 36 170
e 36 182
e 37 38
e 37 39
e 37 40
e 37 41
e 37 59
e 37 70
e 37 80
e 37 115
e 37 123
e 37 150
e 37 161
e 37 171
e 37 183
e 38 39
e 38 40
e 38 41
e 38 81
e 38 93
e 38 105
e 38 116
e 38 124
e 38 162
e 38 172
e 38 184
e 39 40
e 39 41
e 39 50
e 39 60
e 39 71
e 39 82
e 39 94
e 39 106
e 39 117
e 39 125
e 39 139
e 39 151
e 39 163
e 39 185
e 40 41
e 40 63
e 40 83
e 40 96
e 40 108
e 40 128
e 40 142
e 40 153
e 40 165
e 40 175
e 40 197
e 41 51
e 41 65
e 41 73
e 41 84
e 41 98
e 41 130
e 41 154
e 41 177
e 41 189
e 41 198
e 42 43
e 42 44
e 42 45
e 42 46
e 42 47
e 42 48
e 42 49
e 42 50
e 42 51
e 42 52
e 42 66
e 42 85
e 42 109
e 42 131
e 42 144
e 42 155
e 42 166
e 43 44
e 43 45
e 43 46
e 43 47
e 43 48
e 43 49
e 43 50
e 43 51
e 43 67
e 43 75
e 43 87
e 43 111
e 43 119
e 43 133
e 43 146
e 43 157
e 43 178
e 44 45
e 44 46
e 44 47
e 44 48
e 44 49
e 44 50
e 44 51
e 44 54
e 44 68
e 44 112
e 44 120
e 44 134
e 44 147
e 44 191
e 45 46
e 45 47
e 45 48
e 45 49
e 45 50
e 45 51
e 45 69
e 45 76
e 45 88
e 45 99
e 45 167
e 45 179
e 46 47
e 46 48
e 46 49
e 46 50
e 46 51
e 46 56
e 46 78
e 46 90
e 46 101
e 46 114
e 46 121
e 46 136
e 46 148
e 46 159
e 46 168
e 46 180
e 46 192
e 47 48
e 47 49
e 47 50
e 47 51
e 47 57
e 47 91
e 47 102
e 47 137
e 47 181
e 47 193
e 48 49
e 48 50
e 48 51
e 48 58
e 48 103
e 48 169
e 48 194
e 49 50
e 49 51
e 49 79
e 49 92
e 49 104
e 49 122
e 49 138
e 49 149
e 49 160
e 49 170
e 49 182
e 50 51
e 50 60
e 50 71
e 50 82
e 50 94
e 50 106
e 50 117
e 50 125
e 50 139
e 50 151
e 50 163
e 50 185
e 51 65
e 51 73
e 51 84
e 51 98
e 51 130
e 51 154
e 51 177
e 51 189
e 51 198
e 52 53
e 52 54
e 52 55
e 52 56
e 52 57
e 52 58
e 52 59
e 52 60
e 52 61
e 52 62
e 52 63
e 52 64
e 52 65
e 52 66
e 52 85
e 52 109
e 52 131
e 52 144
e 52 155
e 52 166
e 53 54
e 53 55
e 53 56
e 53 57
e 53 58
e 53 59
e 53 60
e 53 61
e 53 62
e 53 63
e 53 64
e 53 65
e 53 74
e 53 86
e 53 110
e 53 132
e 53 145
e 53 156
e 53 190
e 54 55
e 54 56
e 54 57
e 54 58
e 54 59
e 54 60
e 54 61
e 54 62
e 54 63
e 54 64
e 54 65
e 54 68
e 54 112
e 54 120
e 54 134
e 54 147
e 54 191
e 55 56
e 55 57
e 55 58
e 55 59
e 55 60
e 55 61
e 55 62
e 55 63
e 55 64
e 55 65
e 55 77
e 55 89
e 55 100
e 55 113
e 55 135
e 55 158
e 56 57
e 56 58
e 56 59
e 56 60
e 56 61
e 56 62
e 56 63
e 56 64
e 56 65
e 56 78
e 56 90
e 56 101
e 56 114
e 56 121
e 56 136
e 56 148
e 56 159
e 56 168
e 56 180
e 56 192
e 57 58
e 57 59
e 57 60
e 57 61
e 57 62
e 57 63
e 57 64
e 57 65
e 57 91
e 57 102
e 57 137
e 57 181
e 57 193
e 58 59
e 58 60
e 58 61
e 58 62
e 58 63
e 58 64
e 58 65
e 58 103
e 58 169
e 58 194
e 59 60
e 59 61
e 59 62
e 59 63
e 59 64
e 59 65
e 59 70
e 59 80
e 59 115
e 59 123
e 59 150
e 59 161
e 59 171
e 59 183
e 60 61
e 60 62
e 60 63
e 60 64
e 60 65
e 60 71
e 60 82
e 60 94
e 60 106
e 60 117
e 60 125
e 60 139
e 60 151
e 60 163
e 60 185
e 61 62
e 61 63
e 61 64
e 61 65
e 61 72
e 61 118
e 61 126
e 61 140
e 61 164
e 61 173
e 61 186
e 61 195
e 62 63
e 62 64
e 62 65
e 62 95
e 62 107
e 62 127
e 62 141
e 62 152
e 62 174
e 62 187
e 62 196
e 63 64
e 63 65
e 63 83
e 63 96
e 63 108
e 63 128
e 63 142
e 63 153
e 63 165
e 63 175
e 63 197
e 64 65
e 64 97
e 64 129
e 64 143
e 64 176
e 64 188
e 65 73
e 65 84
e 65 98
e 65 130
e 65 154
e 65 177
e 65 189
e 65 198
e 66 67
e 66 68
e 66 69
e 66 70
e 66 71
e 66 72
e 66 73
e 66 85
e 66 109
e 66 131
e 66 144
e 66 155
e 66 166
e 67 68
e 67 69
e 67 70
e 67 71
e 67 72
e 67 73
e 67 75
e 67 87
e 67 111
e 67 119
e 67 133
e 67 146
e 67 157
e 67 178
e 68 69
e 68 70
e 68 71
e 68 72
e 68 73
e 68 112
e 68 120
e 68 134
e 68 147
e 68 191
e 69 70
e 69 71
e 69 72
e 69 73
e 69 76
e 69 88
e 69 99
e 69 167
e 69 179
e 70 71
e 70 72
e 70 73
e 70 80
e 70 115
e 70 123
e 70 150
e 70 161
e 70 171
e 70 183
e 71 72
e 71 73
e 71 82
e 71 94
e 71 106
e 71 117
e 71 125
e 71 139
e 71 151
e 71 163
e 71 185
e 72 73
e 72 118
e 72 126
e 72 140
e 72 164
e 72 173
e 72 186
e 72 195
e 73 84
e 73 98
e 73 130
e 73 154
e 73 177
e 73 189
e 73 198
e 74 75
e 74 76
e 74 77
e 74 78
e 74 79
e 74 80
e 74 81
e 74 82
e 74 83
e 74 84
e 74 86
e 74 110
e 74 132
e 74 145
e 74 156
e 74 190
e 75 76
e 75 77
e 75 78
e 75 79
e 75 80
e 75 81
e 75 82
e 75 83
e 75 84
e 75 87
e 75 111
e 75 119
e 75 133
e 75 146
e 75 157
e 75 178
e 76 77
e 76 78
e 76 79
e 76 80
e 76 81
e 76 82
e 76 83
e 76 84
e 76 88
e 76 99
e 76 167
e 76 179
e 77 78
e 77 79
e 77 80
e 77 81
e 77 82
e 77 83
e 77 84
e 77 89
e 77 100
e 77 113
e 77 135
e 77 158
e 78 79
e 78 80
e 78 81
e 78 82
e 78 83
e 78 84
e 78 90
e 78 101
e 78 114
e 78 121
e 78 136
e 78 148
e 78 159
e 78 168
e 78 180
e 78 192
e 79 80
e 79 81
e 79 82
e 79 83
e 79 84
e 79 92
e 79 104
e 79 122
e 79 138
e 79 149
e 79 160
e 79 170
e 79 182
e 80 81
e 80 82
e 80 83
e 80 84
e 80 115
e 80 123
e 80 150
e 80 161
e 80 171
e 80 183
e 81 82
e 81 83
e 81 84
e 81 93
e 81 105
e 81 116
e 81 124
e 81 162
e 81 172
e 81 184
e 82 83
e 82 84
e 82 94
e 82 106
e 82 117
e 82 125
e 82 139
e 82 151
e 82 163
e 82 185
e 83 84
e 83 96
e 83 108
e 83 128
e 83 142
e 83 153
e 83 165
e 83 175
e 83 197
e 84 98
e 84 130
e 84 154
e 84 177
e 84 189
e 84 198
e 85 86
e 85 87
e 85 88
e 85 89
e 85 90
e 85 91
e 85 92
e 85 93
e 85 94
e 85 95
e 85 96
e 85 97
e 85 98
e 85 109
e 85 131
e 85 144
e 85 155
e 85 166
e 86 87
e 86 88
e 86 89
e 86 90
e 86 91
e 86 92
e 86 93
e 86 94
e 86 95
e 86 96
e 86 97
e 86 98
e 86 110
e 86 132
e 86 145
e 86 156
e 86 190
e 87 88
e 87 89
e 87 90
e 87 91
e 87 92
e 87 93
e 87 94
e 87 95
e 87 96
e 87 97
e 87 98
e 87 111
e 87 119
e 87 133
e 87 146
e 87 157
e 87 178
e 88 89
e 88 90
e 88 91
e 88 92
e 88 93
e 88 94
e 88 95
e 88 96
e 88 97
e 88 98
e 88 99
e 88 167
e 88 179
e 89 90
e 89 91
e 89 92
e 89 93
e 89 94
e 89 95
e 89 96
e 89 97
e 89 98
e 89 100
e 89 113
e 89 135
e 89 158
e 90 91
e 90 92
e 90 93
e 90 94
e 90 95
e 90 96
e 90 97
e 90 98
e 90 101
e 90 114
e 90 121
e 90 136
e 90 148
e 90 159
e 90 168
e 90 180
e 90 192
e 91 92
e 91 93
e 91 94
e 91 95
e 91 96
e 91 97
e 91 98
e 91 102
e 91 137
e 91 181
e 91 193
e 92 93
e 92 94
e 92 95
e 92 96
e 92 97
e 92 98
e 92 104
e 92 122
e 92 138
e 92 149
e 92 160
e 92 170
e 92 182
e 93 94
e 93 95
e 93 96
e 93 97
e 93 98
e 93 105
e 93 116
e 93 124
e 93 162
e 93 172
e 93 184
e 94 95
e 94 96
e 94 97
e 94 98
e 94 106
e 94 117
e 94 125
e 94 139
e 94 151
e 94 163
e 94 185
e 95 96
e 95 97
e 95 98
e 95 107
e 95 127
e 95 141
e 95 152
e 95 174
e 95 187
e 95 196
e 96 97
e 96 98
e 96 108
e 96 128
e 96 142
e 96 153
e 96 165
e 96 175
e 96 197
e 97 98
e 97 129
e 97 143
e 97 176
e 97 188
e 98 130
e 98 154
e 98 177
e 98 189
e 98 198
e 99 100
e 99 101
e 99 102
e 99 103
e 99 104
e 99 105
e 99 106
e 99 107
e 99 108
e 99 167
e 99 179
e 100 101
e 100 102
e 100 103
e 100 104
e 100 105
e 100 106
e 100 107
e 100 108
e 100 113
e 100 135
e 100 158
e 101 102
e 101 103
e 101 104
e 101 105
e 101 106
e 101 107
e 101 108
e 101 114
e 101 121
e 101 136
e 101 148
e 101 159
e 101 168
e 101 180
e 101 192
e 102 103
e 102 104
e 102 105
e 102 106
e 102 107
e 102 108
e 102 137
e 102 181
e 102 193
e 103 104
e 103 105
e 103 106
e 103 107
e 103 108
e 103 169
e 103 194
e 104 105
e 104 106
e 104 107
e 104 108
e 104 122
e 104 138
e 104 149
e 104 160
e 104 170
e 104 182
e 105 106
e 105 107
e 105 108
e 105 116
e 105 124
e 105 162
e 105 172
e 105 184
e 106 107
e 106 108
e 106 117
e 106 125
e 106 139
e 106 151
e 106 163
e 106 185
e 107 108
e 107 127
e 107 141
e 107 152
e 107 174
e 107 187
e 107 196
e 108 128
e 108 142
e 108 153
e 108 165
e 108 175
e 108 197
e 109 110
e 109 111
e 109 112
e 109 113
e 109 114
e 109 115
e 109 116
e 109 117
e 109 118
e 109 131
e 109 144
e 109 155
e 109 166
e 110 111
e 110 112
e 110 113
e 110 114
e 110 115
e 110 116
e 110 117
e 110 118
e 110 132
e 110 145
e 110 156
e 110 190
e 111 112
e 111 113
e 111 114
e 111 115
e 111 116
e 111 117
e 111 118
e 111 119
e 111 133
e 111 146
e 111 157
e 111 178
e 112 113
e 112 114
e 112 115
e 112 116
e 112 117
e 112 118
e 112 120
e 112 134
e 112 147
e 112 191
e 113 114
e 113 115
e 113 116
e 113 117
e 113 118
e 113 135
e 113 158
e 114 115
e 114 116
e 114 117
e 114 118
e 114 121
e 114 136
e 114 148
e 114 159
e 114 168
e 114 180
e 114 192
e 115 116
e 115 117
e 115 118
e 115 123
e 115 150
e 115 161
e 115 171
e 115 183
e 116 117
e 116 118
e 116 124
e 116 162
e 116 172
e 116 184
e 117 118
e 117 125
e 117 139
e 117 151
e 117 163
e 117 185
e 118 126
e 118 140
e 118 164
e 118 173
e 118 186
e 118 195
e 119 120
e 119 121
e 119 122
e 119 123
e 119 124
e 119 125
e 119 126
e 119 127
e 119 128
e 119 129
e 119 130
e 119 133
e 119 146
e 119 157
e 119 178
e 120 121
e 120 122
e 120 123
e 120 124
e 120 125
e 120 126
e 120 127
e 120 128
e 120 129
e 120 130
e 120 134
e 120 147
e 120 191
e 121 122
e 121 123
e 121 124
e 121 125
e 121 126
e 121 127
e 121 128
e 121 129
e 121 130
e 121 136
e 121 148
e 121 159
e 121 168
e 121 180
e 121 192
e 122 123
e 122 124
e 122 125
e 122 126
e 122 127
e 122 128
e 122 129
e 122 130
e 122 138
e 122 149
e 122 160
e 122 170
e 122 182
e 123 124
e 123 125
e 123 126
e 123 127
e 123 128
e 123 129
e 123 130
e 123 150
e 123 161
e 123 171
e 123 183
e 124 125
e 124 126
e 124 127
e 124 128
e 124 129
e 124 130
e 124 162
e 124 172
e 124 184
e 125 126
e 125 127
e 125 128
e 125 129
e 125 130
e 125 139
e 125 151
e 125 163
e 125 185
e 126 127
e 126 128
e 126 129
e 126 130
e 126 140
e 126 164
e 126 173
e 126 186
e 126 195
e 127 128
e 127 129
e 127 130
e 127 141
e 127 152
e 127 174
e 127 187
e 127 196
e 128 129
e 128 130
e 128 142
e 128 153
e 128 165
e 128 175
e 128 197
e 129 130
e 129 143
e 129 176
e 129 188
e 130 154
e 130 177
e 130 189
e 130 198
e 131 132
e 131 133
e 131 134
e 131 135
e 131 136
e 131 137
e 131 138
e 131 139
e 131 140
e 131 141
e 131 142
e 131 143
e 131 144
e 131 155
e 131 166
e 132 133
e 132 134
e 132 135
e 132 136
e 132 137
e 132 138
e 132 139
e 132 140
e 132 141
e 132 142
e 132 143
e 132 145
e 132 156
e 132 190
e 133 134
e 133 135
e 133 136
e 133 137
e 133 138
e 133 139
e 133 140
e 133 141
e 133 142
e 133 143
e 133 146
e 133 157
e 133 178
e 134 135
e 134 136
e 134 137
e 134 138
e 134 139
e 134 140
e 134 141
e 134 142
e 134 143
e 134 147
e 134 191
e 135 136
e 135 137
e 135 138
e 135 139
e 135 140
e 135 141
e 135 142
e 135 143
e 135 158
e 136 137
e 136 138
e 136 139
e 136 140
e 136 141
e 136 142
e 136 143
e 136 148
e 136 159
e 136 168
e 136 180
e 136 192
e 137 138
e 137 139
e 137 140
e 137 141
e 137 142
e 137 143
e 137 181
e 137 193
e 138 139
e 138 140
e 138 141
e 138 142
e 138 143
e 138 149
e 138 160
e 138 170
e 138 182
e 139 140
e 139 141
e 139 142
e 139 143
e 139 151
e 139 163
e 139 185
e 140 141
e 140 142
e 140 143
e 140 164
e 140 173
e 140 186
e 140 195
e 141 142
e 141 143
e 141 152
e 141 174
e 141 187
e 141 196
e 142 143
e 142 153
e 142 165
e 142 175
e 142 197
e 143 176
e 143 188
e 144 145
e 144 146
e 144 147
e 144 148
e 144 149
e 144 150
e 144 151
e 144 152
e 144 153
e 144 154
e 144 155
e 144 166
e 145 146
e 145 147
e 145 148
e 145 149
e 145 150
e 145 151
e 145 152
e 145 153
e 145 154
e 145 156
e 145 190
e 146 147
e 146 148
e 146 149
e 146 150
e 146 151
e 146 152
e 146 153
e 146 154
e 146 157
e 146 178
e 147 148
e 147 149
e 147 150
e 147 151
e 147 152
e 147 153
e 147 154
e 147 191
e 148 149
e 148 150
e 148 151
e 148 152
e 148 153
e 148 154
e 148 159
e 148 168
e 148 180
e 148 192
e 149 150
e 149 151
e 149 152
e 149 153
e 149 154
e 149 160
e 149 170
e 149 182
e 150 151
e 150 152
e 150 153
e 150 154
e 150 161
e 150 171
e 150 183
e 151 152
e 151 153
e 151 154
e 151 163
e 151 185
e 152 153
e 152 154
e 152 174
e 152 187
e 152 196
e 153 154
e 153 165
e 153 175
e 153 197
e 154 177
e 154 189
e 154 198
e 155 156
e 155 157
e 155 158
e 155 159
e 155 160
e 155 161
e 155 162
e 155 163
e 155 164
e 155 165
e 155 166
e 156 157
e 156 158
e 156 159
e 156 160
e 156 161
e 156 162
e 156 163
e 156 164
e 156 165
e 156 190
e 157 158
e 157 159
e 157 160
e 157 161
e 157 162
e 157 163
e 157 164
e 157 165
e 157 178
e 158 159
e 158 160
e 158 161
e 158 162
e 158 163
e 158 164
e 158 165
e 159 160
e 159 161
e 159 162
e 159 163
e 159 164
e 159 165
e 159 168
e 159 180
e 159 192
e 160 161
e 160 162
e 160 163
e 160 164
e 160 165
e 160 170
e 160 182
e 161 162
e 161 163
e 161 164
e 161 165
e 161 171
e 161 183
e 162 163
e 162 164
e 162 165
e 162 172
e 162 184
e 163 164
e 163 165
e 163 185
e 164 165
e 164 173
e 164 186
e 164 195
e 165 175
e 165 197
e 166 167
e 166 168
e 166 169
e 166 170
e 166 171
e 166 172
e 166 173
e 166 174
e 166 175
e 166 176
e 166 177
e 167 168
e 167 169
e 167 170
e 167 171
e 167 172
e 167 173
e 167 174
e 167 175
e 167 176
e 167 177
e 167 179
e 168 169
e 168 170
e 168 171
e 168 172
e 168 173
e 168 174
e 168 175
e 168 176
e 168 177
e 168 180
e 168 192
e 169 170
e 169 171
e 169 172
e 169 173
e 169 174
e 169 175
e 169 176
e 169 177
e 169 194
e 170 171
e 170 172
e 170 173
e 170 174
e 170 175
e 170 176
e 170 177
e 170 182
e 171 172
e 171 173
e 171 174
e 171 175
e 171 176
e 171 177
e 171 183
e 172 173
e 172 174
e 172 175
e 172 176
e 172 177
e 172 184
e 173 174
e 173 175
e 173 176
e 173 177
e 173 186
e 173 195
e 174 175
e 174 176
e 174 177
e 174 187
e 174 196
e 175 176
e 175 177
e 175 197
e 176 177
e 176 188
e 177 189
e 177 198
e 178 179
e 178 180
e 178 181
e 178 182
e 178 183
e 178 184
e 178 185
e 178 186
e 178 187
e 178 188
e 178 189
e 179 180
e 179 181
e 179 182
e 179 183
e 179 184
e 179 185
e 179 186
e 179 187
e 179 188
e 179 189
e 180 181
e 180 182
e 180 183
e 180 184
e 180 185
e 180 186
e 180 187
e 180 188
e 180 189
e 180 192
e 181 182
e 181 183
e 181 184
e 181 185
e 181 186
e 181 187
e 181 188
e 181 189
e 181 193
e 182 183
e 182 184
e 182 185
e 182 186
e 182 187
e 182 188
e 182 189
e 183 184
e 183 185
e 183 186
e 183 187
e 183 188
e 183 189
e 184 185
e 184 186
e 184 187
e 184 188
e 184 189
e 185 186
e 185 187
e 185 188
e 185 189
e 186 187
e 186 188
e 186 189
e 186 195
e 187 188
e 187 189
e 187 196
e 188 189
e 189 198
e 190 191
e 190 192
e 190 193
e 190 194
e 190 195
e 190 196
e 190 197
e 190 198
e 191 192
e 191 193
e 191 194
e 191 195
e 191 196
e 191 197
e 191 198
e 192 193
e 192 194
e 192 195
e 192 196
e 192 197
e 192 198
e 193 194
e 193 195
e 193 196
e 193 197
e 193 198
e 194 195
e 194 196
e 194 197
e 194 198
e 195 196
e 195 197
e 195 198
e 196 197
e 196 198
e 197 198
